
Log started (V11.0.0) Wed May 21 00:02:23 2008

Tried aggregator 1 time.
Reduced MIP has 240 rows, 8001 columns, and 16040 nonzeros.
Presolve time =    0.06 sec.
Clique table members: 200.
MIP emphasis: balance optimality and feasibility.
MIP search method: dynamic search.
Parallel mode: none, using 1 thread.
Root relaxation solution time =    0.78 sec.

        Nodes                                         Cuts/
   Node  Left     Objective  IInf  Best Integer     Best Node    ItCnt     Gap

*     0+    0                       209440.0000     5012.1240      547   97.61%
*     0+    0                         5026.0000     5012.1240      547    0.28%
      0     0     5013.0000    68     5026.0000      Fract: 6      565    0.26%
      0     0     5017.0000    59     5026.0000     Covers: 1      632    0.18%
      0     0     5017.0000    66     5026.0000       Cuts: 5      671    0.18%
      0     0     5017.0000    66     5026.0000     Covers: 1      674    0.18%
*     0+    0                         5024.0000     5017.0000      674    0.14%
*     0+    0                         5023.0000     5017.0000      674    0.12%
      0     2     5017.0000    66     5023.0000     5017.0000      674    0.12%
    100    46     5017.0000    63     5023.0000     5017.0000     4060    0.12%
    200    79     5018.0000    70     5023.0000     5017.0000     7586    0.12%
    300   107     5019.0000    71     5023.0000     5017.0000    12249    0.12%
    400   133     5021.0000    64     5023.0000     5017.0000    17201    0.12%
*   477+  127                         5021.0000     5017.0000    20826    0.08%
*   478+   84                         5019.0000     5017.0000    22887    0.04%
    500    84     5017.0000    69     5019.0000     5017.0000    23652    0.04%
*   578+   68                         5018.0000     5017.0000    26750    0.02%
    600    74     5017.0000    70     5018.0000     5017.0000    27690    0.02%
    700   104     5017.0000    69     5018.0000     5017.0000    34800    0.02%
*   704+    0                         5017.0000     5017.0000    35236    0.00%

Cover cuts applied:  23
Flow cuts applied:  1
Gomory fractional cuts applied:  2

Solution pool: 8 solutions saved.

MIP - Integer optimal solution:  Objective = 5.0170000000e+003
Solution time =   38.70 sec.  Iterations = 35236  Nodes = 704


Incumbent solution
Variable Name           Solution Value
Cmax                       5017.000000
X_1_32                        1.000000
X_2_11                        1.000000
X_3_18                        1.000000
X_4_26                        1.000000
X_5_33                        1.000000
X_6_2                         1.000000
X_7_17                        1.000000
X_8_39                        1.000000
X_9_1                         1.000000
X_10_37                       1.000000
X_11_31                       1.000000
X_12_39                       1.000000
X_13_36                       1.000000
X_14_31                       1.000000
X_15_8                        1.000000
X_16_8                        1.000000
X_17_14                       1.000000
X_18_28                       1.000000
X_19_35                       1.000000
X_20_3                        1.000000
X_21_2                        1.000000
X_22_23                       1.000000
X_23_26                       1.000000
X_24_14                       1.000000
X_25_33                       1.000000
X_26_29                       1.000000
X_27_24                       1.000000
X_28_36                       1.000000
X_29_24                       1.000000
X_30_24                       1.000000
X_31_2                        1.000000
X_32_9                        1.000000
X_33_15                       1.000000
X_34_23                       1.000000
X_35_10                       1.000000
X_36_29                       1.000000
X_37_27                       1.000000
X_38_15                       1.000000
X_39_28                       1.000000
X_40_39                       1.000000
X_41_6                        1.000000
X_42_19                       1.000000
X_43_10                       1.000000
X_44_20                       1.000000
X_45_36                       1.000000
X_46_10                       1.000000
X_47_24                       1.000000
X_48_19                       1.000000
X_49_40                       1.000000
X_50_2                        1.000000
X_51_28                       1.000000
X_52_7                        1.000000
X_53_37                       1.000000
X_54_25                       1.000000
X_55_35                       1.000000
X_56_25                       1.000000
X_57_19                       1.000000
X_58_29                       1.000000
X_59_7                        1.000000
X_60_30                       1.000000
X_61_22                       1.000000
X_62_19                       1.000000
X_63_17                       1.000000
X_64_22                       1.000000
X_65_35                       1.000000
X_66_40                       1.000000
X_67_31                       1.000000
X_68_15                       1.000000
X_69_11                       1.000000
X_70_6                        1.000000
X_71_20                       1.000000
X_72_5                        1.000000
X_73_12                       1.000000
X_74_3                        1.000000
X_75_1                        1.000000
X_76_4                        1.000000
X_77_20                       1.000000
X_78_3                        1.000000
X_79_22                       1.000000
X_80_25                       1.000000
X_81_21                       1.000000
X_82_14                       1.000000
X_83_34                       1.000000
X_84_10                       1.000000
X_85_38                       1.000000
X_86_12                       1.000000
X_87_39                       1.000000
X_88_13                       1.000000
X_89_7                        1.000000
X_90_5                        1.000000
X_91_34                       1.000000
X_92_17                       1.000000
X_93_11                       1.000000
X_94_6                        1.000000
X_95_16                       1.000000
X_96_25                       1.000000
X_97_14                       1.000000
X_98_28                       1.000000
X_99_38                       1.000000
X_100_13                      1.000000
X_101_23                      1.000000
X_102_40                      1.000000
X_103_4                       1.000000
X_104_20                      1.000000
X_105_40                      1.000000
X_106_20                      1.000000
X_107_8                       1.000000
X_108_3                       1.000000
X_109_18                      1.000000
X_110_33                      1.000000
X_111_27                      1.000000
X_112_27                      1.000000
X_113_40                      1.000000
X_114_32                      1.000000
X_115_9                       1.000000
X_116_16                      1.000000
X_117_17                      1.000000
X_118_9                       1.000000
X_119_9                       1.000000
X_120_23                      1.000000
X_121_3                       1.000000
X_122_4                       1.000000
X_123_30                      1.000000
X_124_1                       1.000000
X_125_37                      1.000000
X_126_33                      1.000000
X_127_29                      1.000000
X_128_1                       1.000000
X_129_29                      1.000000
X_130_37                      1.000000
X_131_15                      1.000000
X_132_10                      1.000000
X_133_31                      1.000000
X_134_18                      1.000000
X_135_27                      1.000000
X_136_26                      1.000000
X_137_19                      1.000000
X_138_25                      1.000000
X_139_24                      1.000000
X_140_26                      1.000000
X_141_30                      1.000000
X_142_27                      1.000000
X_143_34                      1.000000
X_144_28                      1.000000
X_145_1                       1.000000
X_146_34                      1.000000
X_147_33                      1.000000
X_148_36                      1.000000
X_149_35                      1.000000
X_150_2                       1.000000
X_151_30                      1.000000
X_152_32                      1.000000
X_153_5                       1.000000
X_154_37                      1.000000
X_155_38                      1.000000
X_156_4                       1.000000
X_157_5                       1.000000
X_158_8                       1.000000
X_159_16                      1.000000
X_160_21                      1.000000
X_161_11                      1.000000
X_162_8                       1.000000
X_163_21                      1.000000
X_164_26                      1.000000
X_165_30                      1.000000
X_166_4                       1.000000
X_167_36                      1.000000
X_168_35                      1.000000
X_169_39                      1.000000
X_170_6                       1.000000
X_171_22                      1.000000
X_172_32                      1.000000
X_173_6                       1.000000
X_174_12                      1.000000
X_175_13                      1.000000
X_176_16                      1.000000
X_177_11                      1.000000
X_178_22                      1.000000
X_179_7                       1.000000
X_180_14                      1.000000
X_181_38                      1.000000
X_182_7                       1.000000
X_183_31                      1.000000
X_184_12                      1.000000
X_185_21                      1.000000
X_186_13                      1.000000
X_187_21                      1.000000
X_188_23                      1.000000
X_189_34                      1.000000
X_190_12                      1.000000
X_191_32                      1.000000
X_192_17                      1.000000
X_193_18                      1.000000
X_194_15                      1.000000
X_195_13                      1.000000
X_196_5                       1.000000
X_197_16                      1.000000
X_198_18                      1.000000
X_199_38                      1.000000
X_200_9                       1.000000
All other variables in the range 1-8001 are 0.
